c Barbasi and Albert's preferential attachment model G(n, d), whith n = 8, d = 4
c d is the min degree parameter
c
c seed id 1360866350
c
p edge 8 16
e 1 5
e 1 6
e 2 5
e 2 6
e 2 7
e 2 8
e 3 5
e 3 7
e 4 5
e 4 6
e 4 7
e 4 8
e 5 6
e 5 7
e 6 8
e 7 8
